param num_items := 7;
param num_bids := 5;
param max_item = 7;

# packages = [
#    {1,2,3,4},
#    {2,3,6},
#    {1,4,5},
#    {2,7},
#    {5,6},
# ];
param packages: 1 2 3 4 5 6 7 :=
 #  1 2 3 4 5 6 7
 1  1 1 1 1 . . . 
 2  . 1 1 . . 1 . 
 3  1 . . 1 1 . . 
 4  . 1 . . . . 1
 5  . . . . 1 1 . 
;

param bids := 
  1 8
  2 6
  3 5 
  4 2
  5 2
;
